20 125
47 109
31 42
15 44
72 59
26 43
63 22
16 77
51 6
34 166
2 116
2 115
6 155
41 81
49 75
58 13
22 33
19 75
68 10
22 62
2 131
34 27
32 120
17 79
19 198
39 41
28 13
12 33
16 72
54 45
47 2
16 131
18 78
31 138
56 87
20 164
18 88
68 59
80 48
81 3
55 67
29 50
44 18
32 30
27 79
29 46
22 25
16 122
29 77
41 72
70 10
77 57
17 7
22 58
12 54
31 79
8 171
9 23
4 191
48 57
54 46
21 17
91 40
54 54
24 42
38 14
54 10
30 122
12 16
34 75
35 107
31 1
2 128
56 32
20 159
25 143
99 42
5 120
5 115
26 128
45 21
19 62
11 61
35 93
18 141
92 23
67 12
64 36
4 49
22 138
67 75
27 188
44 13
92 16
12 168
62 4
46 18
6 3
61 10
59 31
